147
0 113 85 40 102 74 81 46 108 22 
4 57 5 36 121 28 21 70 12 96 
31 60 86 138 2 107 118 64 59 89 
94 146 134 114 122 66 25 109 48 65 
129 52 84 24 62 112 130 73 13 106 
63 110 51 43 69 37 87 54 61 128 
135 53 124 20 50 125 132 91 88 127 
131 79 29 42 77 111 41 93 120 17 
116 145 142 141 32 56 76 104 3 35 
119 100 75 18 10 38 137 14 45 15 
82 98 101 140 39 44 133 71 72 126 
83 139 9 80 11 78 123 95 16 26 
47 19 23 30 97 7 34 1 92 49 
33 115 143 58 8 90 117 27 6 144 
99 55 103 68 136 67 105 
